521.0
514.0
463.0
484.0
549.0
507.0
517.0
569.0
460.0
552.0
509.0
408.0
617.0
454.0
578.0
460.0
585.0
600.0
591.0
504.0
475.0
454.0
499.0
471.0
613.0
484.0
455.0
650.0
463.0
569.0
599.0
611.0
457.0
531.0
484.0
500.0
518.0
482.0
512.0
487.0
587.0
575.0
555.0
623.0
507.0
548.0
588.0
508.0
463.0
546.0
465.0
582.0
623.0
692.0
425.0
581.0
447.0
524.0
487.0
611.0
573.0
520.0
398.0
488.0
593.0
493.0
550.0
570.0
518.0
543.0
636.0
516.0
555.0
646.0
444.0
557.0
533.0
493.0
564.0
588.0
458.0
570.0
601.0
556.0
511.0
471.0
415.0
586.0
481.0
593.0
537.0
523.0
419.0
509.0
575.0
494.0
541.0
467.0
499.0
543.0
473.0
